c turning on binary mode checking
c parsing input formula with 259840 variables and 1039919 clauses
c finished parsing, read 23398973 bytes from proof file
c detected empty clause; start verification via backward checking
c 17467 of 1039919 clauses in core                            
c 22189 of 600563 lemmas in core using 142246 resolution steps
c 0 RAT lemmas in core; 1298 redundant literals in core lemmas
s VERIFIED
c verification time: 2.315 seconds
